sat
(:max-memory         17.95
 :memory             17.95
 :nlsat-propagations 6
 :nlsat-stages       6
 :num-allocs         18368
 :rlimit-count       1128
 :time               0.00
 :total-time         0.01)
